NAME: n200q35A.tsp, 200 nodes, semilla 0
COMMENT: Problema aleatorio de norma euclidea
DIMENSION: 200
CAPACITY: 35
EDGE_WEIGHT_TYPE: EUC_2D
NODE_COORD_SECTION
1   0.0000   0.0000
2 220.0000 -461.0000
3 -62.0000 -261.0000
4 298.0000 356.0000
5 -214.0000 -134.0000
6 113.0000 -49.0000
7 -399.0000 354.0000
8 -218.0000 -357.0000
9 422.0000  38.0000
10 -214.0000 446.0000
11 181.0000 498.0000
12 392.0000 477.0000
13 407.0000 156.0000
14 -176.0000 -42.0000
15 -259.0000 382.0000
16 -221.0000 226.0000
17  91.0000 -53.0000
18  88.0000 341.0000
19 -262.0000 408.0000
20 118.0000 112.0000
21 368.0000 -43.0000
22 379.0000  34.0000
23 388.0000 -276.0000
24  85.0000  98.0000
25 -388.0000 -287.0000
26 -433.0000  79.0000
27 -95.0000 130.0000
28   6.0000 -220.0000
29 150.0000 -111.0000
30 -323.0000 -170.0000
31 -235.0000 -168.0000
32 -363.0000 -385.0000
33 -397.0000 429.0000
34 -95.0000 153.0000
35 357.0000 -162.0000
36 273.0000  99.0000
37 -286.0000 -402.0000
38 204.0000 184.0000
39 443.0000 -239.0000
40 -124.0000 248.0000
41 -495.0000 372.0000
42 -347.0000 174.0000
43   5.0000 320.0000
44 -313.0000 -260.0000
45 438.0000 305.0000
46 -164.0000 -476.0000
47 -106.0000  34.0000
48  75.0000 -479.0000
49 462.0000 484.0000
50 -434.0000 125.0000
51 331.0000  70.0000
52 -263.0000 -332.0000
53 137.0000 -250.0000
54 228.0000 120.0000
55 -176.0000 201.0000
56 275.0000 423.0000
57 -437.0000 312.0000
58 -308.0000  66.0000
59 248.0000 -380.0000
60 121.0000 -449.0000
61 469.0000 -165.0000
62  78.0000  25.0000
63  32.0000 -453.0000
64 -227.0000 -41.0000
65 -365.0000  31.0000
66 -64.0000  82.0000
67 -339.0000 168.0000
68 143.0000 315.0000
69  28.0000 477.0000
70 -405.0000 324.0000
71 -255.0000 269.0000
72 -478.0000 325.0000
73 -203.0000 308.0000
74 -236.0000 227.0000
75 -437.0000 141.0000
76 -419.0000 -452.0000
77 -171.0000 248.0000
78 -316.0000 -386.0000
79 244.0000 260.0000
80  -5.0000 392.0000
81 -366.0000 -138.0000
82 152.0000  73.0000
83 -29.0000 -245.0000
84 475.0000 -480.0000
85 323.0000 322.0000
86 -47.0000 411.0000
87 -343.0000 -251.0000
88 -24.0000 412.0000
89 220.0000 -63.0000
90 -244.0000 -111.0000
91 341.0000 -52.0000
92  -6.0000 355.0000
93 342.0000 256.0000
94 -332.0000 -295.0000
95  57.0000 317.0000
96 428.0000 -498.0000
97  52.0000 -285.0000
98 -220.0000 -416.0000
99 347.0000 175.0000
100 300.0000 -485.0000
101  38.0000 166.0000
102 453.0000  61.0000
103 -139.0000 376.0000
104 351.0000 -413.0000
105 234.0000  23.0000
106 -242.0000 -44.0000
107 -402.0000 -31.0000
108 -358.0000 276.0000
109 -322.0000 441.0000
110 -218.0000 244.0000
111 -377.0000 117.0000
112 113.0000 -352.0000
113  24.0000 -108.0000
114 196.0000 -367.0000
115 -193.0000 -434.0000
116 380.0000 -324.0000
117 -266.0000 -472.0000
118 448.0000 -446.0000
119 -337.0000 -17.0000
120 245.0000 202.0000
121 246.0000 -43.0000
122 360.0000  92.0000
123 -186.0000 315.0000
124 155.0000 295.0000
125 -481.0000 -434.0000
126 284.0000  78.0000
127  95.0000 389.0000
128 -94.0000 -291.0000
129  -2.0000 177.0000
130 -22.0000 -165.0000
131 -474.0000 -379.0000
132 -247.0000 131.0000
133 -254.0000 -127.0000
134 -438.0000 467.0000
135 -10.0000 -342.0000
136 -389.0000 360.0000
137 441.0000  76.0000
138 427.0000 -135.0000
139 398.0000 194.0000
140 -410.0000 -84.0000
141 161.0000 493.0000
142 397.0000 -418.0000
143 480.0000 -188.0000
144 -145.0000 479.0000
145 199.0000 459.0000
146 204.0000 -363.0000
147 144.0000 -241.0000
148 -116.0000 224.0000
149  27.0000 304.0000
150 -309.0000 -490.0000
151   3.0000 -24.0000
152 -248.0000  79.0000
153 385.0000 355.0000
154 255.0000 -397.0000
155 453.0000 -464.0000
156 283.0000 -445.0000
157 138.0000 -201.0000
158 -384.0000 -498.0000
159  18.0000 -373.0000
160 -176.0000 -267.0000
161 466.0000  33.0000
162 227.0000  89.0000
163 -306.0000 -46.0000
164 -411.0000 -21.0000
165 -232.0000  30.0000
166 395.0000 228.0000
167 253.0000  73.0000
168 -138.0000 358.0000
169 120.0000 411.0000
170 411.0000 307.0000
171 -292.0000 -406.0000
172  -6.0000 -387.0000
173 -164.0000 -373.0000
174 406.0000 413.0000
175 341.0000 -135.0000
176 -436.0000 -73.0000
177 111.0000 -163.0000
178 -169.0000 302.0000
179 -97.0000 438.0000
180 -428.0000 -364.0000
181   9.0000 202.0000
182  41.0000 -307.0000
183 220.0000 110.0000
184  19.0000 181.0000
185 302.0000 499.0000
186 -263.0000 -265.0000
187 122.0000 -422.0000
188 371.0000 -296.0000
189 -50.0000 -398.0000
190 -497.0000 -277.0000
191  82.0000 -185.0000
192 180.0000  37.0000
193  62.0000 212.0000
194 -160.0000 -12.0000
195 196.0000 -300.0000
196 352.0000 188.0000
197 -434.0000 -386.0000
198 -33.0000 -350.0000
199  80.0000 -265.0000
200 -112.0000 444.0000
DISPLAY_DATA_SECTION:
 1  250  250
 2  360   19
 3  219  119
 4  399  428
 5  143  183
 6  306  225
 7   50  427
 8  141   71
 9  461  269
10  143  473
11  340  499
12  446  488
13  453  328
14  162  229
15  120  441
16  139  363
17  295  223
18  294  420
19  119  454
20  309  306
21  434  228
22  439  267
23  444  112
24  292  299
25   56  106
26   33  289
27  202  315
28  253  140
29  325  194
30   88  165
31  132  166
32   68   57
33   51  464
34  202  326
35  428  169
36  386  299
37  107   49
38  352  342
39  471  130
40  188  374
41    2  436
42   76  337
43  252  410
44   93  120
45  469  402
46  168   12
47  197  267
48  287   10
49  481  492
50   33  312
51  415  285
52  118   84
53  318  125
54  364  310
55  162  350
56  387  461
57   31  406
58   96  283
59  374   60
60  310   25
61  484  167
62  289  262
63  266   23
64  136  229
65   67  265
66  218  291
67   80  334
68  321  407
69  264  488
70   47  412
71  122  384
72   11  412
73  148  404
74  132  363
75   31  320
76   40   24
77  164  374
78   92   57
79  372  380
80  247  446
81   67  181
82  326  286
83  235  127
84  487   10
85  411  411
86  226  455
87   78  124
88  238  456
89  360  218
90  128  194
91  420  224
92  247  427
93  421  378
94   84  102
95  278  408
96  464    1
97  276  107
98  140   42
99  423  337
100  400    7
101  269  333
102  476  280
103  180  438
104  425   43
105  367  261
106  129  228
107   49  234
108   71  388
109   89  470
110  141  372
111   61  308
112  306   74
113  262  196
114  348   66
115  153   33
116  440   88
117  117   14
118  474   27
119   81  241
120  372  351
121  373  228
122  430  296
123  157  407
124  327  397
125    9   33
126  392  289
127  297  444
128  203  104
129  249  338
130  239  167
131   13   60
132  126  315
133  123  186
134   31  483
135  245   79
136   55  430
137  470  288
138  463  182
139  449  347
140   45  208
141  330  496
142  448   41
143  490  156
144  177  489
145  349  479
146  352   68
147  322  129
148  192  362
149  263  402
150   95    5
151  251  238
152  126  289
153  442  427
154  377   51
155  476   18
156  391   27
157  319  149
158   58    1
159  259   63
160  162  116
161  483  266
162  363  294
163   97  227
164   44  239
165  134  265
166  447  364
167  376  286
168  181  429
169  310  455
170  455  403
171  104   47
172  247   56
173  168   63
174  453  456
175  420  182
176   32  213
177  305  168
178  165  401
179  201  469
180   36   68
181  254  351
182  270   96
183  360  305
184  259  340
185  401  499
186  118  117
187  311   39
188  435  102
189  225   51
190    1  111
191  291  157
192  340  268
193  281  356
194  170  244
195  348  100
196  426  344
197   33   57
198  233   75
199  290  117
200  194  472
DEMAND_SECTION
1 -4
2 -2
3 0
4 7
5 8
6 2
7 2
8 -8
9 -6
10 -9
11 -4
12 -8
13 3
14 -2
15 -4
16 3
17 -7
18 -10
19 7
20 4
21 -1
22 -8
23 -6
24 -10
25 -5
26 -5
27 -10
28 0
29 0
30 6
31 -3
32 3
33 9
34 -1
35 0
36 -1
37 0
38 10
39 0
40 -3
41 3
42 -7
43 3
44 5
45 0
46 4
47 4
48 0
49 -7
50 0
51 -9
52 -7
53 -7
54 -2
55 -3
56 -10
57 5
58 4
59 -1
60 4
61 -9
62 2
63 -1
64 0
65 7
66 -3
67 5
68 -1
69 1
70 8
71 -10
72 7
73 6
74 -7
75 -9
76 6
77 9
78 -2
79 2
80 -2
81 2
82 6
83 1
84 4
85 9
86 -3
87 3
88 -6
89 5
90 -4
91 1
92 9
93 6
94 -10
95 3
96 8
97 0
98 3
99 -5
100 3
101 -1
102 -2
103 3
104 2
105 -8
106 1
107 9
108 -9
109 8
110 -5
111 -2
112 5
113 0
114 4
115 -2
116 9
117 4
118 4
119 -3
120 -2
121 -2
122 -10
123 4
124 -9
125 0
126 7
127 -1
128 1
129 7
130 -7
131 8
132 -4
133 9
134 6
135 -7
136 -1
137 0
138 7
139 8
140 3
141 -4
142 0
143 -9
144 -6
145 -1
146 1
147 7
148 8
149 3
150 8
151 3
152 -6
153 9
154 3
155 2
156 3
157 -8
158 -9
159 -6
160 -6
161 3
162 -1
163 -2
164 7
165 5
166 1
167 3
168 0
169 -3
170 -5
171 1
172 8
173 0
174 -2
175 6
176 -6
177 -6
178 -5
179 -5
180 4
181 2
182 -6
183 1
184 8
185 1
186 5
187 7
188 10
189 -8
190 -9
191 4
192 0
193 5
194 -8
195 -8
196 3
197 0
198 8
199 -9
200 -5
EOF